WARNING: for repeatability, setting FPU to use double precision
============================[ Problem Statistics ]=============================
|                                                                             |
|  Number of variables:         54324                                         |
|  Number of clauses:          152157                                         |
|  Parse time:                   0.03 s                                       |
|                                                                             |
============================[ Search Statistics ]==============================
| Conflicts |          ORIGINAL         |          LEARNT          | Progress |
|           |    Vars  Clauses Literals |    Limit  Clauses Lit/Cl |          |
===============================================================================
|       100 |   48702   139167   327094 |    51027       98     28 | 10.349 % |
|       250 |   48702   139140   327032 |    56130      248     36 | 10.349 % |
|       475 |   48524   138934   326558 |    61743      465     39 | 10.677 % |
|       812 |   47821   136082   320300 |    67918      716     40 | 11.971 % |
===============================================================================
restarts              : 7
conflicts             : 883            (3354 /sec)
decisions             : 17826          (0.00 % random) (67708 /sec)
propagations          : 4597491        (17462629 /sec)
conflict literals     : 30082          (10.88 % deleted)
Memory used           : 14.00 MB
CPU time              : 0.263276 s

UNSATISFIABLE
